20 10
70 87 60 49 31 26 73 40 89 69
7 53 2 87 45 59 26 50 94 23
10 59 25 48 93 53 62 52 65 55
39 98 73 44 53 66 98 35 32 66
62 37 9 64 23 95 73 95 82 19
21 36 85 30 35 56 29 60 58 86
70 46 26 6 46 63 69 62 93 41
77 89 75 24 23 40 57 48 69 61
8 69 74 99 83 36 38 37 50 40
97 39 92 93 57 38 55 46 94 38
12 63 97 2 48 43 33 7 89 5
29 11 60 79 37 29 82 78 82 79
61 49 24 2 82 34 91 93 57 18
40 20 53 22 10 32 2 36 47 74
97 84 82 41 36 74 15 37 78 91
5 5 88 78 59 32 95 77 62 94
34 62 94 65 50 18 96 59 25 56
38 99 85 88 2 31 87 77 55 88
22 32 16 43 83 91 54 52 92 58
89 89 43 96 31 4 35 75 12 37
